presolving:
(round 1, fast)       581 del vars, 0 del conss, 0 add conss, 0 chg bounds, 0 chg sides, 0 chg coeffs, 0 upgd conss, 0 impls, 388 clqs
(round 2, exhaustive) 581 del vars, 0 del conss, 0 add conss, 0 chg bounds, 0 chg sides, 0 chg coeffs, 37637 upgd conss, 0 impls, 388 clqs
(round 3, fast)       581 del vars, 0 del conss, 0 add conss, 37249 chg bounds, 0 chg sides, 0 chg coeffs, 37637 upgd conss, 37249 impls, 388 clqs
   (13.1s) probing: 1000/37442 (2.7%) - 0 fixings, 0 aggregations, 383813 implications, 0 bound changes
   (13.1s) probing: 1001/37442 (2.7%) - 0 fixings, 0 aggregations, 384197 implications, 0 bound changes
   (13.1s) probing aborted: 1000/1000 successive useless probings
   Deactivated symmetry handling methods, since SCIP was built without symmetry detector (SYM=none).
presolving (4 rounds: 4 fast, 2 medium, 2 exhaustive):
 581 deleted vars, 0 deleted constraints, 0 added constraints, 37249 tightened bounds, 0 added holes, 0 changed sides, 0 changed coefficients
 421446 implications, 4439 cliques
presolved problem has 74691 variables (37442 bin, 37249 int, 0 impl, 0 cont) and 37830 constraints
  37249 constraints of type <varbound>
    388 constraints of type <setppc>
    193 constraints of type <linear>
transformed objective value is always integral (scale: 1)
Presolving Time: 12.96

 time | node  | left  |LP iter|LP it/n|mem/heur|mdpt |vars |cons |rows |cuts |sepa|confs|strbr|  dualbound   | primalbound  |  gap   | compl. 
p14.7s|     1 |     0 |     0 |     - |   locks|   0 |  74k|  37k|  37k|   0 |  0 |   1 |   0 | 0.000000e+00 | 3.969000e+04 |    Inf | unknown
